NAME : morphed20-5-22
COMMENT : Generated using the function morphInstances from the R-package netgen (Bossek,2015) - Number of clusters: 5 Alpha: 0.5
TYPE : TSP
DIMENSION : 20
EDGE_WEIGHT_TYPE : EUC_2D
NODE_COORD_SECTION
1 20.8625454155 16.5994212555
2 45.5129475792 30.8316409922
3 98.4222811887 46.4580304032
4 54.5225471162 75.5213404534
5 76.8621820529 69.5615026679
6 68.9277819068 82.0458776126
7 62.77798841 54.4064753879
8 53.5355480679 93.7332786844
9 42.6643008125 21.5381741949
10 37.1429500104 19.3696174353
11 92.5115685288 24.8849535561
12 72.7118335732 36.1174505579
13 44.5607780714 80.5852277974
14 85.7975457996 24.6074611645
15 37.1071421319 98.4817657335
16 4.4694392948 1.8984342888
17 41.7917058571 82.5900964223
18 9.5366685789 6.8431746216
19 42.2674569422 9.182652975
20 36.2024392579 46.2815599292
EOF
